100
32
8
8
18
7
9
11
10
19
1
1
17
2
4
2
18
1
17
3
2
2
3
4
17
6
1
1
1
1
4
1
1
1
2
1
18
4
1
2
3
1
3
19
22
1
2
9
2
17
2
4
2
2
2
1
1
4
1
1
3
1
1
2
19
2
2
1
3
17
4
1
1
2
3
16
1
5
3
3
4
1
1
17
1
1
2
1
2
1
3
1
1
1
3
2
2
1
2
8
3
4